row=8;
Board=[|-1,2,4,8,9,-1,0,-1,6,-1|-1,9,-1,-1,-1,4,8,7,-1,-1|-1,4,-1,5,9,-1,-1,1,6,-1|3,1,9,7,-1,-1,-1,8,-1,2|-1,0,5,-1,-1,9,2,-1,-1,-1|7,9,-1,-1,0,4,5,6,3,-1|0,4,6,-1,9,-1,3,-1,2,-1|2,-1,-1,-1,3,0,-1,-1,5,-1|];
bottom=[36,38,34,44,43,40,29,39,25,32]